NAME : traveling-santa-2018-prime-paths.29780.tour
COMMENT : Length = 29780
COMMENT : Found by LKH [Keld Helsgaun] Sun Jun 12 20:00:08 2022
TYPE : TOUR
DIMENSION : 100
TOUR_SECTION
1
94
32
91
78
35
22
30
18
24
53
86
11
68
72
58
33
46
71
81
49
66
77
85
39
14
87
99
63
52
74
6
9
41
20
5
62
31
50
36
56
75
19
54
8
23
44
73
76
64
38
79
59
2
67
45
48
95
89
88
97
69
10
90
60
37
25
70
17
7
16
15
43
93
55
61
27
96
42
80
34
65
28
100
40
47
13
84
82
4
29
92
83
51
26
12
57
3
21
98
-1
EOF
